50
    1    81    81
    2    42    42
    3    42    42
    4    42    42
    5    56    56
    6    68    68
    7    25    25
    8    68    68
    9    14    14
   10    77    77
   11    63    63
   12    57    57
   13    75    75
   14    17    17
   15    41    41
   16    19    19
   17    19    19
   18    94    94
   19    12    12
   20    34    34
   21    25    25
   22    87    87
   23    37    37
   24    27    27
   25    10    10
   26    99    99
   27    86    86
   28    30    30
   29     6     6
   30    59    59
   31    46    46
   32   100   100
   33     7     7
   34    30    30
   35    18    18
   36    38    38
   37    79    79
   38    86    86
   39     8     8
   40    69    69
   41    51    51
   42    53    53
   43    53    53
   44    59    59
   45    38    38
   46    40    40
   47   100   100
   48    96    96
   49    82    82
   50    57    57
420
